YauzaCTF-2021/Crypto/Knapsack/Task-sources/flag.txt
[12777998288638, 10593582832873, 7834439533378, 10486500991495, 14714582460036, 7568907598905, 12800035735033, 14724457772647, 11910445040159, 11202963622894, 10291238568620, 15103559399914, 13156142631772, 16988824411176]